%%% static parameters %%%
timespan = [1];
Fact = [3];
Distr1 = [10];
Distr2 = [20];
Clients_N = [40];
Demand_W = [15];
Lt0 = [4];
Lt1 = [4];
SS_ = [0.85];
DS_D = [7];
K = [200];
MA = [500];
%%% dynamic parameters %%%
lost_ratio_sales_ret_th = 0.33076279379813434;
lost_ratio_sales_ret_w = 1;
lost_ratio_sales_dis_th = 0.6397931499238467;
lost_ratio_sales_dis_w = 85;
lost_ratio_sales_fac_th = 0.7289092195344766;
lost_ratio_sales_fac_w = 40;
stock_customer_MA_mean_relative_th = 0.9176073969348437;
stock_customer_MA_mean_relative_w = 76;
stock_distributor_MA_mean_relative_th = 0.3209138237151059;
stock_distributor_MA_mean_relative_w = 24;
stock_retailer_MA_mean_relative_th = 0.7967432370528779;
stock_retailer_MA_mean_relative_w = 81;
stock_factory_MA_mean_relative_th = 0.6952838457451922;
stock_factory_MA_mean_relative_w = 11;
